p cnf 345 1226
c p weight -33 1 0
c p weight 33 -1 0
c p weight 37 6.12323399573676603586882014729198302312846062338790031898128063403419218957424163818359375E-17 0
c p weight -37 1 0
c p weight 38 1 0
c p weight -38 1 0
c p weight -35 1 0
c p weight 35 -1 0
c p weight -39 1 0
c p weight 39 -1 0
c p weight -41 1 0
c p weight 41 -1 0
c p weight -42 1 0
c p weight 42 -1 0
c p weight 46 6.12323399573676603586882014729198302312846062338790031898128063403419218957424163818359375E-17 0
c p weight -46 1 0
c p weight 47 1 0
c p weight -47 1 0
c p weight -44 1 0
c p weight 44 -1 0
c p weight -48 1 0
c p weight 48 -1 0
c p weight -50 1 0
c p weight 50 -1 0
c p weight -51 1 0
c p weight 51 -1 0
c p weight 55 6.12323399573676603586882014729198302312846062338790031898128063403419218957424163818359375E-17 0
c p weight -55 1 0
c p weight 56 1 0
c p weight -56 1 0
c p weight -53 1 0
c p weight 53 -1 0
c p weight -57 1 0
c p weight 57 -1 0
c p weight -59 1 0
c p weight 59 -1 0
c p weight 63 6.12323399573676603586882014729198302312846062338790031898128063403419218957424163818359375E-17 0
c p weight -63 1 0
c p weight 64 1 0
c p weight -64 1 0
c p weight -61 1 0
c p weight 61 -1 0
c p weight -65 1 0
c p weight 65 -1 0
c p weight -67 1 0
c p weight 67 -1 0
c p weight -68 1 0
c p weight 68 -1 0
c p weight 72 6.12323399573676603586882014729198302312846062338790031898128063403419218957424163818359375E-17 0
c p weight -72 1 0
c p weight 73 1 0
c p weight -73 1 0
c p weight -70 1 0
c p weight 70 -1 0
c p weight -74 1 0
c p weight 74 -1 0
c p weight -76 1 0
c p weight 76 -1 0
c p weight 80 6.12323399573676603586882014729198302312846062338790031898128063403419218957424163818359375E-17 0
c p weight -80 1 0
c p weight 81 1 0
c p weight -81 1 0
c p weight -78 1 0
c p weight 78 -1 0
c p weight -82 1 0
c p weight 82 -1 0
c p weight -84 1 0
c p weight 84 -1 0
c p weight -85 1 0
c p weight 85 -1 0
c p weight 89 6.12323399573676603586882014729198302312846062338790031898128063403419218957424163818359375E-17 0
c p weight -89 1 0
c p weight 90 1 0
c p weight -90 1 0
c p weight -87 1 0
c p weight 87 -1 0
c p weight -91 1 0
c p weight 91 -1 0
c p weight -93 1 0
c p weight 93 -1 0
c p weight -94 1 0
c p weight 94 -1 0
c p weight 98 6.12323399573676603586882014729198302312846062338790031898128063403419218957424163818359375E-17 0
c p weight -98 1 0
c p weight 99 1 0
c p weight -99 1 0
c p weight -96 1 0
c p weight 96 -1 0
c p weight -100 1 0
c p weight 100 -1 0
c p weight -102 1 0
c p weight 102 -1 0
c p weight 106 6.12323399573676603586882014729198302312846062338790031898128063403419218957424163818359375E-17 0
c p weight -106 1 0
c p weight 107 1 0
c p weight -107 1 0
c p weight -104 1 0
c p weight 104 -1 0
c p weight -108 1 0
c p weight 108 -1 0
c p weight -110 1 0
c p weight 110 -1 0
c p weight -111 1 0
c p weight 111 -1 0
c p weight 115 6.12323399573676603586882014729198302312846062338790031898128063403419218957424163818359375E-17 0
c p weight -115 1 0
c p weight 116 1 0
c p weight -116 1 0
c p weight -113 1 0
c p weight 113 -1 0
c p weight -117 1 0
c p weight 117 -1 0
c p weight -119 1 0
c p weight 119 -1 0
c p weight -120 1 0
c p weight 120 -1 0
c p weight 124 6.12323399573676603586882014729198302312846062338790031898128063403419218957424163818359375E-17 0
c p weight -124 1 0
c p weight 125 1 0
c p weight -125 1 0
c p weight -122 1 0
c p weight 122 -1 0
c p weight -126 1 0
c p weight 126 -1 0
c p weight -128 1 0
c p weight 128 -1 0
c p weight 132 6.12323399573676603586882014729198302312846062338790031898128063403419218957424163818359375E-17 0
c p weight -132 1 0
c p weight 133 1 0
c p weight -133 1 0
c p weight -130 1 0
c p weight 130 -1 0
c p weight -134 1 0
c p weight 134 -1 0
c p weight -136 1 0
c p weight 136 -1 0
c p weight -137 1 0
c p weight 137 -1 0
c p weight 141 6.12323399573676603586882014729198302312846062338790031898128063403419218957424163818359375E-17 0
c p weight -141 1 0
c p weight 142 1 0
c p weight -142 1 0
c p weight -139 1 0
c p weight 139 -1 0
c p weight -143 1 0
c p weight 143 -1 0
c p weight -145 1 0
c p weight 145 -1 0
c p weight -146 1 0
c p weight 146 -1 0
c p weight 150 6.12323399573676603586882014729198302312846062338790031898128063403419218957424163818359375E-17 0
c p weight -150 1 0
c p weight 151 1 0
c p weight -151 1 0
c p weight -148 1 0
c p weight 148 -1 0
c p weight -152 1 0
c p weight 152 -1 0
c p weight -154 1 0
c p weight 154 -1 0
c p weight 158 6.12323399573676603586882014729198302312846062338790031898128063403419218957424163818359375E-17 0
c p weight -158 1 0
c p weight 159 1 0
c p weight -159 1 0
c p weight -156 1 0
c p weight 156 -1 0
c p weight -160 1 0
c p weight 160 -1 0
c p weight -162 1 0
c p weight 162 -1 0
c p weight -163 1 0
c p weight 163 -1 0
c p weight 167 6.12323399573676603586882014729198302312846062338790031898128063403419218957424163818359375E-17 0
c p weight -167 1 0
c p weight 168 1 0
c p weight -168 1 0
c p weight -165 1 0
c p weight 165 -1 0
c p weight -169 1 0
c p weight 169 -1 0
c p weight -171 1 0
c p weight 171 -1 0
c p weight -174 1 0
c p weight 174 -1 0
c p weight -175 1 0
c p weight 175 -1 0
c p weight 179 6.12323399573676603586882014729198302312846062338790031898128063403419218957424163818359375E-17 0
c p weight -179 1 0
c p weight 180 1 0
c p weight -180 1 0
c p weight -177 1 0
c p weight 177 -1 0
c p weight -181 1 0
c p weight 181 -1 0
c p weight -183 1 0
c p weight 183 -1 0
c p weight -186 1 0
c p weight 186 -1 0
c p weight -187 1 0
c p weight 187 -1 0
c p weight 191 6.12323399573676603586882014729198302312846062338790031898128063403419218957424163818359375E-17 0
c p weight -191 1 0
c p weight 192 1 0
c p weight -192 1 0
c p weight -189 1 0
c p weight 189 -1 0
c p weight -193 1 0
c p weight 193 -1 0
c p weight -195 1 0
c p weight 195 -1 0
c p weight -198 1 0
c p weight 198 -1 0
c p weight 202 6.12323399573676603586882014729198302312846062338790031898128063403419218957424163818359375E-17 0
c p weight -202 1 0
c p weight 203 1 0
c p weight -203 1 0
c p weight -200 1 0
c p weight 200 -1 0
c p weight -204 1 0
c p weight 204 -1 0
c p weight -206 1 0
c p weight 206 -1 0
c p weight -209 1 0
c p weight 209 -1 0
c p weight -210 1 0
c p weight 210 -1 0
c p weight 214 6.12323399573676603586882014729198302312846062338790031898128063403419218957424163818359375E-17 0
c p weight -214 1 0
c p weight 215 1 0
c p weight -215 1 0
c p weight -212 1 0
c p weight 212 -1 0
c p weight -216 1 0
c p weight 216 -1 0
c p weight -218 1 0
c p weight 218 -1 0
c p weight -221 1 0
c p weight 221 -1 0
c p weight 225 6.12323399573676603586882014729198302312846062338790031898128063403419218957424163818359375E-17 0
c p weight -225 1 0
c p weight 226 1 0
c p weight -226 1 0
c p weight -223 1 0
c p weight 223 -1 0
c p weight -227 1 0
c p weight 227 -1 0
c p weight -229 1 0
c p weight 229 -1 0
c p weight -232 1 0
c p weight 232 -1 0
c p weight -233 1 0
c p weight 233 -1 0
c p weight 237 6.12323399573676603586882014729198302312846062338790031898128063403419218957424163818359375E-17 0
c p weight -237 1 0
c p weight 238 1 0
c p weight -238 1 0
c p weight -235 1 0
c p weight 235 -1 0
c p weight -239 1 0
c p weight 239 -1 0
c p weight -241 1 0
c p weight 241 -1 0
c p weight -244 1 0
c p weight 244 -1 0
c p weight -245 1 0
c p weight 245 -1 0
c p weight 249 6.12323399573676603586882014729198302312846062338790031898128063403419218957424163818359375E-17 0
c p weight -249 1 0
c p weight 250 1 0
c p weight -250 1 0
c p weight -247 1 0
c p weight 247 -1 0
c p weight -251 1 0
c p weight 251 -1 0
c p weight -253 1 0
c p weight 253 -1 0
c p weight -256 1 0
c p weight 256 -1 0
c p weight 260 6.12323399573676603586882014729198302312846062338790031898128063403419218957424163818359375E-17 0
c p weight -260 1 0
c p weight 261 1 0
c p weight -261 1 0
c p weight -258 1 0
c p weight 258 -1 0
c p weight -262 1 0
c p weight 262 -1 0
c p weight -264 1 0
c p weight 264 -1 0
c p weight -267 1 0
c p weight 267 -1 0
c p weight -268 1 0
c p weight 268 -1 0
c p weight 272 6.12323399573676603586882014729198302312846062338790031898128063403419218957424163818359375E-17 0
c p weight -272 1 0
c p weight 273 1 0
c p weight -273 1 0
c p weight -270 1 0
c p weight 270 -1 0
c p weight -274 1 0
c p weight 274 -1 0
c p weight -276 1 0
c p weight 276 -1 0
c p weight -279 1 0
c p weight 279 -1 0
c p weight -280 1 0
c p weight 280 -1 0
c p weight 284 6.12323399573676603586882014729198302312846062338790031898128063403419218957424163818359375E-17 0
c p weight -284 1 0
c p weight 285 1 0
c p weight -285 1 0
c p weight -282 1 0
c p weight 282 -1 0
c p weight -286 1 0
c p weight 286 -1 0
c p weight -288 1 0
c p weight 288 -1 0
c p weight -291 1 0
c p weight 291 -1 0
c p weight 295 6.12323399573676603586882014729198302312846062338790031898128063403419218957424163818359375E-17 0
c p weight -295 1 0
c p weight 296 1 0
c p weight -296 1 0
c p weight -293 1 0
c p weight 293 -1 0
c p weight -297 1 0
c p weight 297 -1 0
c p weight -299 1 0
c p weight 299 -1 0
c p weight -302 1 0
c p weight 302 -1 0
c p weight -303 1 0
c p weight 303 -1 0
c p weight 307 6.12323399573676603586882014729198302312846062338790031898128063403419218957424163818359375E-17 0
c p weight -307 1 0
c p weight 308 1 0
c p weight -308 1 0
c p weight -305 1 0
c p weight 305 -1 0
c p weight -309 1 0
c p weight 309 -1 0
c p weight -311 1 0
c p weight 311 -1 0
c p weight -314 1 0
c p weight 314 -1 0
c p weight -315 1 0
c p weight 315 -1 0
c p weight 319 6.12323399573676603586882014729198302312846062338790031898128063403419218957424163818359375E-17 0
c p weight -319 1 0
c p weight 320 1 0
c p weight -320 1 0
c p weight -317 1 0
c p weight 317 -1 0
c p weight -321 1 0
c p weight 321 -1 0
c p weight -323 1 0
c p weight 323 -1 0
c p weight -326 1 0
c p weight 326 -1 0
c p weight 330 6.12323399573676603586882014729198302312846062338790031898128063403419218957424163818359375E-17 0
c p weight -330 1 0
c p weight 331 1 0
c p weight -331 1 0
c p weight -328 1 0
c p weight 328 -1 0
c p weight -332 1 0
c p weight 332 -1 0
c p weight -334 1 0
c p weight 334 -1 0
c p weight -337 1 0
c p weight 337 -1 0
c p weight 341 6.12323399573676603586882014729198302312846062338790031898128063403419218957424163818359375E-17 0
c p weight -341 1 0
c p weight 342 1 0
c p weight -342 1 0
c p weight -339 1 0
c p weight 339 -1 0
c p weight -343 1 0
c p weight 343 -1 0
c p weight 345 0.5 0
c p weight -345 1 0
345 0
-31 0
-29 0
-27 0
-25 0
-23 0
-21 0
-19 0
-17 0
-15 0
-13 0
-11 0
-9 0
-7 0
-5 0
-3 0
-1 0
-33 1 0
-33 2 0
33 -1 -2 0
34 1 -2 0
34 -1 2 0
-34 1 2 0
-34 -1 -2 0
-35 36 0
-35 34 0
-35 -1 0
35 -36 1 -34 0
36 -1 34 0
-36 1 34 0
-37 34 0
36 -37 -1 0
-36 -37 1 0
36 37 1 -34 0
-36 37 -1 -34 0
-38 34 0
36 -38 1 0
-36 -38 -1 0
36 38 -1 -34 0
-36 38 1 -34 0
-39 36 0
-39 34 0
39 -36 -34 0
40 36 -34 0
40 -36 34 0
-40 36 34 0
-40 -36 -34 0
41 -40 0
-41 40 0
-42 3 0
-42 4 0
42 -3 -4 0
43 3 -4 0
43 -3 4 0
-43 3 4 0
-43 -3 -4 0
-44 45 0
-44 43 0
-44 -3 0
44 -45 3 -43 0
45 -3 43 0
-45 3 43 0
-46 43 0
45 -46 -3 0
-45 -46 3 0
45 46 3 -43 0
-45 46 -3 -43 0
-47 43 0
45 -47 3 0
-45 -47 -3 0
45 47 -3 -43 0
-45 47 3 -43 0
-48 45 0
-48 43 0
48 -45 -43 0
49 45 -43 0
49 -45 43 0
-49 45 43 0
-49 -45 -43 0
50 -49 0
-50 49 0
-51 5 0
-51 6 0
51 -5 -6 0
52 5 -6 0
52 -5 6 0
-52 5 6 0
-52 -5 -6 0
-53 54 0
-53 52 0
-53 -5 0
53 -54 5 -52 0
54 -5 52 0
-54 5 52 0
-55 52 0
54 -55 -5 0
-54 -55 5 0
54 55 5 -52 0
-54 55 -5 -52 0
-56 52 0
54 -56 5 0
-54 -56 -5 0
54 56 -5 -52 0
-54 56 5 -52 0
-57 54 0
-57 52 0
57 -54 -52 0
58 54 -52 0
58 -54 52 0
-58 54 52 0
-58 -54 -52 0
-59 7 0
-59 8 0
59 -7 -8 0
60 7 -8 0
60 -7 8 0
-60 7 8 0
-60 -7 -8 0
-61 62 0
-61 60 0
-61 -7 0
61 -62 7 -60 0
62 -7 60 0
-62 7 60 0
-63 60 0
62 -63 -7 0
-62 -63 7 0
62 63 7 -60 0
-62 63 -7 -60 0
-64 60 0
62 -64 7 0
-62 -64 -7 0
62 64 -7 -60 0
-62 64 7 -60 0
-65 62 0
-65 60 0
65 -62 -60 0
66 62 -60 0
66 -62 60 0
-66 62 60 0
-66 -62 -60 0
67 -66 0
-67 66 0
-68 9 0
-68 10 0
68 -9 -10 0
69 9 -10 0
69 -9 10 0
-69 9 10 0
-69 -9 -10 0
-70 71 0
-70 69 0
-70 -9 0
70 -71 9 -69 0
71 -9 69 0
-71 9 69 0
-72 69 0
71 -72 -9 0
-71 -72 9 0
71 72 9 -69 0
-71 72 -9 -69 0
-73 69 0
71 -73 9 0
-71 -73 -9 0
71 73 -9 -69 0
-71 73 9 -69 0
-74 71 0
-74 69 0
74 -71 -69 0
75 71 -69 0
75 -71 69 0
-75 71 69 0
-75 -71 -69 0
-76 11 0
-76 12 0
76 -11 -12 0
77 11 -12 0
77 -11 12 0
-77 11 12 0
-77 -11 -12 0
-78 79 0
-78 77 0
-78 -11 0
78 -79 11 -77 0
79 -11 77 0
-79 11 77 0
-80 77 0
79 -80 -11 0
-79 -80 11 0
79 80 11 -77 0
-79 80 -11 -77 0
-81 77 0
79 -81 11 0
-79 -81 -11 0
79 81 -11 -77 0
-79 81 11 -77 0
-82 79 0
-82 77 0
82 -79 -77 0
83 79 -77 0
83 -79 77 0
-83 79 77 0
-83 -79 -77 0
84 -83 0
-84 83 0
-85 13 0
-85 14 0
85 -13 -14 0
86 13 -14 0
86 -13 14 0
-86 13 14 0
-86 -13 -14 0
-87 88 0
-87 86 0
-87 -13 0
87 -88 13 -86 0
88 -13 86 0
-88 13 86 0
-89 86 0
88 -89 -13 0
-88 -89 13 0
88 89 13 -86 0
-88 89 -13 -86 0
-90 86 0
88 -90 13 0
-88 -90 -13 0
88 90 -13 -86 0
-88 90 13 -86 0
-91 88 0
-91 86 0
91 -88 -86 0
92 88 -86 0
92 -88 86 0
-92 88 86 0
-92 -88 -86 0
93 -92 0
-93 92 0
-94 15 0
-94 16 0
94 -15 -16 0
95 15 -16 0
95 -15 16 0
-95 15 16 0
-95 -15 -16 0
-96 97 0
-96 95 0
-96 -15 0
96 -97 15 -95 0
97 -15 95 0
-97 15 95 0
-98 95 0
97 -98 -15 0
-97 -98 15 0
97 98 15 -95 0
-97 98 -15 -95 0
-99 95 0
97 -99 15 0
-97 -99 -15 0
97 99 -15 -95 0
-97 99 15 -95 0
-100 97 0
-100 95 0
100 -97 -95 0
101 97 -95 0
101 -97 95 0
-101 97 95 0
-101 -97 -95 0
-102 17 0
-102 18 0
102 -17 -18 0
103 17 -18 0
103 -17 18 0
-103 17 18 0
-103 -17 -18 0
-104 105 0
-104 103 0
-104 -17 0
104 -105 17 -103 0
105 -17 103 0
-105 17 103 0
-106 103 0
105 -106 -17 0
-105 -106 17 0
105 106 17 -103 0
-105 106 -17 -103 0
-107 103 0
105 -107 17 0
-105 -107 -17 0
105 107 -17 -103 0
-105 107 17 -103 0
-108 105 0
-108 103 0
108 -105 -103 0
109 105 -103 0
109 -105 103 0
-109 105 103 0
-109 -105 -103 0
110 -109 0
-110 109 0
-111 19 0
-111 20 0
111 -19 -20 0
112 19 -20 0
112 -19 20 0
-112 19 20 0
-112 -19 -20 0
-113 114 0
-113 112 0
-113 -19 0
113 -114 19 -112 0
114 -19 112 0
-114 19 112 0
-115 112 0
114 -115 -19 0
-114 -115 19 0
114 115 19 -112 0
-114 115 -19 -112 0
-116 112 0
114 -116 19 0
-114 -116 -19 0
114 116 -19 -112 0
-114 116 19 -112 0
-117 114 0
-117 112 0
117 -114 -112 0
118 114 -112 0
118 -114 112 0
-118 114 112 0
-118 -114 -112 0
119 -118 0
-119 118 0
-120 21 0
-120 22 0
120 -21 -22 0
121 21 -22 0
121 -21 22 0
-121 21 22 0
-121 -21 -22 0
-122 123 0
-122 121 0
-122 -21 0
122 -123 21 -121 0
123 -21 121 0
-123 21 121 0
-124 121 0
123 -124 -21 0
-123 -124 21 0
123 124 21 -121 0
-123 124 -21 -121 0
-125 121 0
123 -125 21 0
-123 -125 -21 0
123 125 -21 -121 0
-123 125 21 -121 0
-126 123 0
-126 121 0
126 -123 -121 0
127 123 -121 0
127 -123 121 0
-127 123 121 0
-127 -123 -121 0
-128 23 0
-128 24 0
128 -23 -24 0
129 23 -24 0
129 -23 24 0
-129 23 24 0
-129 -23 -24 0
-130 131 0
-130 129 0
-130 -23 0
130 -131 23 -129 0
131 -23 129 0
-131 23 129 0
-132 129 0
131 -132 -23 0
-131 -132 23 0
131 132 23 -129 0
-131 132 -23 -129 0
-133 129 0
131 -133 23 0
-131 -133 -23 0
131 133 -23 -129 0
-131 133 23 -129 0
-134 131 0
-134 129 0
134 -131 -129 0
135 131 -129 0
135 -131 129 0
-135 131 129 0
-135 -131 -129 0
136 -135 0
-136 135 0
-137 25 0
-137 26 0
137 -25 -26 0
138 25 -26 0
138 -25 26 0
-138 25 26 0
-138 -25 -26 0
-139 140 0
-139 138 0
-139 -25 0
139 -140 25 -138 0
140 -25 138 0
-140 25 138 0
-141 138 0
140 -141 -25 0
-140 -141 25 0
140 141 25 -138 0
-140 141 -25 -138 0
-142 138 0
140 -142 25 0
-140 -142 -25 0
140 142 -25 -138 0
-140 142 25 -138 0
-143 140 0
-143 138 0
143 -140 -138 0
144 140 -138 0
144 -140 138 0
-144 140 138 0
-144 -140 -138 0
145 -144 0
-145 144 0
-146 27 0
-146 28 0
146 -27 -28 0
147 27 -28 0
147 -27 28 0
-147 27 28 0
-147 -27 -28 0
-148 149 0
-148 147 0
-148 -27 0
148 -149 27 -147 0
149 -27 147 0
-149 27 147 0
-150 147 0
149 -150 -27 0
-149 -150 27 0
149 150 27 -147 0
-149 150 -27 -147 0
-151 147 0
149 -151 27 0
-149 -151 -27 0
149 151 -27 -147 0
-149 151 27 -147 0
-152 149 0
-152 147 0
152 -149 -147 0
153 149 -147 0
153 -149 147 0
-153 149 147 0
-153 -149 -147 0
-154 29 0
-154 30 0
154 -29 -30 0
155 29 -30 0
155 -29 30 0
-155 29 30 0
-155 -29 -30 0
-156 157 0
-156 155 0
-156 -29 0
156 -157 29 -155 0
157 -29 155 0
-157 29 155 0
-158 155 0
157 -158 -29 0
-157 -158 29 0
157 158 29 -155 0
-157 158 -29 -155 0
-159 155 0
157 -159 29 0
-157 -159 -29 0
157 159 -29 -155 0
-157 159 29 -155 0
-160 157 0
-160 155 0
160 -157 -155 0
161 157 -155 0
161 -157 155 0
-161 157 155 0
-161 -157 -155 0
162 -32 0
-162 32 0
-163 31 0
-163 32 0
163 -31 -32 0
164 31 -32 0
164 -31 32 0
-164 31 32 0
-164 -31 -32 0
-165 166 0
-165 164 0
-165 -31 0
165 -166 31 -164 0
166 -31 164 0
-166 31 164 0
-167 164 0
166 -167 -31 0
-166 -167 31 0
166 167 31 -164 0
-166 167 -31 -164 0
-168 164 0
166 -168 31 0
-166 -168 -31 0
166 168 -31 -164 0
-166 168 31 -164 0
-169 166 0
-169 164 0
169 -166 -164 0
170 166 -164 0
170 -166 164 0
-170 166 164 0
-170 -166 -164 0
-171 36 0
-171 170 0
-171 166 -40 0
-171 -166 40 0
171 -36 166 40 -170 0
171 -36 -166 -40 -170 0
173 36 -166 0
173 -36 166 0
-173 36 166 0
-173 -36 -166 0
172 40 -170 0
172 -40 170 0
-172 40 170 0
-172 -40 -170 0
174 -172 0
-174 172 0
-175 36 0
-175 172 0
175 -36 -172 0
176 36 -172 0
176 -36 172 0
-176 36 172 0
-176 -36 -172 0
-177 178 0
-177 176 0
-177 -36 0
177 -178 36 -176 0
178 -36 176 0
-178 36 176 0
-179 176 0
178 -179 -36 0
-178 -179 36 0
178 179 36 -176 0
-178 179 -36 -176 0
-180 176 0
178 -180 36 0
-178 -180 -36 0
178 180 -36 -176 0
-178 180 36 -176 0
-181 178 0
-181 176 0
181 -178 -176 0
182 178 -176 0
182 -178 176 0
-182 178 176 0
-182 -178 -176 0
-183 45 0
-183 170 0
-183 173 -49 0
-183 -173 49 0
183 -45 173 49 -170 0
183 -45 -173 -49 -170 0
185 45 -173 0
185 -45 173 0
-185 45 173 0
-185 -45 -173 0
184 49 -170 0
184 -49 170 0
-184 49 170 0
-184 -49 -170 0
186 -184 0
-186 184 0
-187 45 0
-187 184 0
187 -45 -184 0
188 45 -184 0
188 -45 184 0
-188 45 184 0
-188 -45 -184 0
-189 190 0
-189 188 0
-189 -45 0
189 -190 45 -188 0
190 -45 188 0
-190 45 188 0
-191 188 0
190 -191 -45 0
-190 -191 45 0
190 191 45 -188 0
-190 191 -45 -188 0
-192 188 0
190 -192 45 0
-190 -192 -45 0
190 192 -45 -188 0
-190 192 45 -188 0
-193 190 0
-193 188 0
193 -190 -188 0
194 190 -188 0
194 -190 188 0
-194 190 188 0
-194 -190 -188 0
-195 54 0
-195 170 0
-195 185 -58 0
-195 -185 58 0
195 -54 185 58 -170 0
195 -54 -185 -58 -170 0
197 54 -185 0
197 -54 185 0
-197 54 185 0
-197 -54 -185 0
196 58 -170 0
196 -58 170 0
-196 58 170 0
-196 -58 -170 0
-198 54 0
-198 196 0
198 -54 -196 0
199 54 -196 0
199 -54 196 0
-199 54 196 0
-199 -54 -196 0
-200 201 0
-200 199 0
-200 -54 0
200 -201 54 -199 0
201 -54 199 0
-201 54 199 0
-202 199 0
201 -202 -54 0
-201 -202 54 0
201 202 54 -199 0
-201 202 -54 -199 0
-203 199 0
201 -203 54 0
-201 -203 -54 0
201 203 -54 -199 0
-201 203 54 -199 0
-204 201 0
-204 199 0
204 -201 -199 0
205 201 -199 0
205 -201 199 0
-205 201 199 0
-205 -201 -199 0
-206 62 0
-206 170 0
-206 197 -66 0
-206 -197 66 0
206 -62 197 66 -170 0
206 -62 -197 -66 -170 0
208 62 -197 0
208 -62 197 0
-208 62 197 0
-208 -62 -197 0
207 66 -170 0
207 -66 170 0
-207 66 170 0
-207 -66 -170 0
209 -207 0
-209 207 0
-210 62 0
-210 207 0
210 -62 -207 0
211 62 -207 0
211 -62 207 0
-211 62 207 0
-211 -62 -207 0
-212 213 0
-212 211 0
-212 -62 0
212 -213 62 -211 0
213 -62 211 0
-213 62 211 0
-214 211 0
213 -214 -62 0
-213 -214 62 0
213 214 62 -211 0
-213 214 -62 -211 0
-215 211 0
213 -215 62 0
-213 -215 -62 0
213 215 -62 -211 0
-213 215 62 -211 0
-216 213 0
-216 211 0
216 -213 -211 0
217 213 -211 0
217 -213 211 0
-217 213 211 0
-217 -213 -211 0
-218 71 0
-218 170 0
-218 208 -75 0
-218 -208 75 0
218 -71 208 75 -170 0
218 -71 -208 -75 -170 0
220 71 -208 0
220 -71 208 0
-220 71 208 0
-220 -71 -208 0
219 75 -170 0
219 -75 170 0
-219 75 170 0
-219 -75 -170 0
-221 71 0
-221 219 0
221 -71 -219 0
222 71 -219 0
222 -71 219 0
-222 71 219 0
-222 -71 -219 0
-223 224 0
-223 222 0
-223 -71 0
223 -224 71 -222 0
224 -71 222 0
-224 71 222 0
-225 222 0
224 -225 -71 0
-224 -225 71 0
224 225 71 -222 0
-224 225 -71 -222 0
-226 222 0
224 -226 71 0
-224 -226 -71 0
224 226 -71 -222 0
-224 226 71 -222 0
-227 224 0
-227 222 0
227 -224 -222 0
228 224 -222 0
228 -224 222 0
-228 224 222 0
-228 -224 -222 0
-229 79 0
-229 170 0
-229 220 -83 0
-229 -220 83 0
229 -79 220 83 -170 0
229 -79 -220 -83 -170 0
231 79 -220 0
231 -79 220 0
-231 79 220 0
-231 -79 -220 0
230 83 -170 0
230 -83 170 0
-230 83 170 0
-230 -83 -170 0
232 -230 0
-232 230 0
-233 79 0
-233 230 0
233 -79 -230 0
234 79 -230 0
234 -79 230 0
-234 79 230 0
-234 -79 -230 0
-235 236 0
-235 234 0
-235 -79 0
235 -236 79 -234 0
236 -79 234 0
-236 79 234 0
-237 234 0
236 -237 -79 0
-236 -237 79 0
236 237 79 -234 0
-236 237 -79 -234 0
-238 234 0
236 -238 79 0
-236 -238 -79 0
236 238 -79 -234 0
-236 238 79 -234 0
-239 236 0
-239 234 0
239 -236 -234 0
240 236 -234 0
240 -236 234 0
-240 236 234 0
-240 -236 -234 0
-241 88 0
-241 170 0
-241 231 -92 0
-241 -231 92 0
241 -88 231 92 -170 0
241 -88 -231 -92 -170 0
243 88 -231 0
243 -88 231 0
-243 88 231 0
-243 -88 -231 0
242 92 -170 0
242 -92 170 0
-242 92 170 0
-242 -92 -170 0
244 -242 0
-244 242 0
-245 88 0
-245 242 0
245 -88 -242 0
246 88 -242 0
246 -88 242 0
-246 88 242 0
-246 -88 -242 0
-247 248 0
-247 246 0
-247 -88 0
247 -248 88 -246 0
248 -88 246 0
-248 88 246 0
-249 246 0
248 -249 -88 0
-248 -249 88 0
248 249 88 -246 0
-248 249 -88 -246 0
-250 246 0
248 -250 88 0
-248 -250 -88 0
248 250 -88 -246 0
-248 250 88 -246 0
-251 248 0
-251 246 0
251 -248 -246 0
252 248 -246 0
252 -248 246 0
-252 248 246 0
-252 -248 -246 0
-253 97 0
-253 170 0
-253 243 -101 0
-253 -243 101 0
253 -97 243 101 -170 0
253 -97 -243 -101 -170 0
255 97 -243 0
255 -97 243 0
-255 97 243 0
-255 -97 -243 0
254 101 -170 0
254 -101 170 0
-254 101 170 0
-254 -101 -170 0
-256 97 0
-256 254 0
256 -97 -254 0
257 97 -254 0
257 -97 254 0
-257 97 254 0
-257 -97 -254 0
-258 259 0
-258 257 0
-258 -97 0
258 -259 97 -257 0
259 -97 257 0
-259 97 257 0
-260 257 0
259 -260 -97 0
-259 -260 97 0
259 260 97 -257 0
-259 260 -97 -257 0
-261 257 0
259 -261 97 0
-259 -261 -97 0
259 261 -97 -257 0
-259 261 97 -257 0
-262 259 0
-262 257 0
262 -259 -257 0
263 259 -257 0
263 -259 257 0
-263 259 257 0
-263 -259 -257 0
-264 105 0
-264 170 0
-264 255 -109 0
-264 -255 109 0
264 -105 255 109 -170 0
264 -105 -255 -109 -170 0
266 105 -255 0
266 -105 255 0
-266 105 255 0
-266 -105 -255 0
265 109 -170 0
265 -109 170 0
-265 109 170 0
-265 -109 -170 0
267 -265 0
-267 265 0
-268 105 0
-268 265 0
268 -105 -265 0
269 105 -265 0
269 -105 265 0
-269 105 265 0
-269 -105 -265 0
-270 271 0
-270 269 0
-270 -105 0
270 -271 105 -269 0
271 -105 269 0
-271 105 269 0
-272 269 0
271 -272 -105 0
-271 -272 105 0
271 272 105 -269 0
-271 272 -105 -269 0
-273 269 0
271 -273 105 0
-271 -273 -105 0
271 273 -105 -269 0
-271 273 105 -269 0
-274 271 0
-274 269 0
274 -271 -269 0
275 271 -269 0
275 -271 269 0
-275 271 269 0
-275 -271 -269 0
-276 114 0
-276 170 0
-276 266 -118 0
-276 -266 118 0
276 -114 266 118 -170 0
276 -114 -266 -118 -170 0
278 114 -266 0
278 -114 266 0
-278 114 266 0
-278 -114 -266 0
277 118 -170 0
277 -118 170 0
-277 118 170 0
-277 -118 -170 0
279 -277 0
-279 277 0
-280 114 0
-280 277 0
280 -114 -277 0
281 114 -277 0
281 -114 277 0
-281 114 277 0
-281 -114 -277 0
-282 283 0
-282 281 0
-282 -114 0
282 -283 114 -281 0
283 -114 281 0
-283 114 281 0
-284 281 0
283 -284 -114 0
-283 -284 114 0
283 284 114 -281 0
-283 284 -114 -281 0
-285 281 0
283 -285 114 0
-283 -285 -114 0
283 285 -114 -281 0
-283 285 114 -281 0
-286 283 0
-286 281 0
286 -283 -281 0
287 283 -281 0
287 -283 281 0
-287 283 281 0
-287 -283 -281 0
-288 123 0
-288 170 0
-288 278 -127 0
-288 -278 127 0
288 -123 278 127 -170 0
288 -123 -278 -127 -170 0
290 123 -278 0
290 -123 278 0
-290 123 278 0
-290 -123 -278 0
289 127 -170 0
289 -127 170 0
-289 127 170 0
-289 -127 -170 0
-291 123 0
-291 289 0
291 -123 -289 0
292 123 -289 0
292 -123 289 0
-292 123 289 0
-292 -123 -289 0
-293 294 0
-293 292 0
-293 -123 0
293 -294 123 -292 0
294 -123 292 0
-294 123 292 0
-295 292 0
294 -295 -123 0
-294 -295 123 0
294 295 123 -292 0
-294 295 -123 -292 0
-296 292 0
294 -296 123 0
-294 -296 -123 0
294 296 -123 -292 0
-294 296 123 -292 0
-297 294 0
-297 292 0
297 -294 -292 0
298 294 -292 0
298 -294 292 0
-298 294 292 0
-298 -294 -292 0
-299 131 0
-299 170 0
-299 290 -135 0
-299 -290 135 0
299 -131 290 135 -170 0
299 -131 -290 -135 -170 0
301 131 -290 0
301 -131 290 0
-301 131 290 0
-301 -131 -290 0
300 135 -170 0
300 -135 170 0
-300 135 170 0
-300 -135 -170 0
302 -300 0
-302 300 0
-303 131 0
-303 300 0
303 -131 -300 0
304 131 -300 0
304 -131 300 0
-304 131 300 0
-304 -131 -300 0
-305 306 0
-305 304 0
-305 -131 0
305 -306 131 -304 0
306 -131 304 0
-306 131 304 0
-307 304 0
306 -307 -131 0
-306 -307 131 0
306 307 131 -304 0
-306 307 -131 -304 0
-308 304 0
306 -308 131 0
-306 -308 -131 0
306 308 -131 -304 0
-306 308 131 -304 0
-309 306 0
-309 304 0
309 -306 -304 0
310 306 -304 0
310 -306 304 0
-310 306 304 0
-310 -306 -304 0
-311 140 0
-311 170 0
-311 301 -144 0
-311 -301 144 0
311 -140 301 144 -170 0
311 -140 -301 -144 -170 0
313 140 -301 0
313 -140 301 0
-313 140 301 0
-313 -140 -301 0
312 144 -170 0
312 -144 170 0
-312 144 170 0
-312 -144 -170 0
314 -312 0
-314 312 0
-315 140 0
-315 312 0
315 -140 -312 0
316 140 -312 0
316 -140 312 0
-316 140 312 0
-316 -140 -312 0
-317 318 0
-317 316 0
-317 -140 0
317 -318 140 -316 0
318 -140 316 0
-318 140 316 0
-319 316 0
318 -319 -140 0
-318 -319 140 0
318 319 140 -316 0
-318 319 -140 -316 0
-320 316 0
318 -320 140 0
-318 -320 -140 0
318 320 -140 -316 0
-318 320 140 -316 0
-321 318 0
-321 316 0
321 -318 -316 0
322 318 -316 0
322 -318 316 0
-322 318 316 0
-322 -318 -316 0
-323 149 0
-323 170 0
-323 313 -153 0
-323 -313 153 0
323 -149 313 153 -170 0
323 -149 -313 -153 -170 0
325 149 -313 0
325 -149 313 0
-325 149 313 0
-325 -149 -313 0
324 153 -170 0
324 -153 170 0
-324 153 170 0
-324 -153 -170 0
-326 149 0
-326 324 0
326 -149 -324 0
327 149 -324 0
327 -149 324 0
-327 149 324 0
-327 -149 -324 0
-328 329 0
-328 327 0
-328 -149 0
328 -329 149 -327 0
329 -149 327 0
-329 149 327 0
-330 327 0
329 -330 -149 0
-329 -330 149 0
329 330 149 -327 0
-329 330 -149 -327 0
-331 327 0
329 -331 149 0
-329 -331 -149 0
329 331 -149 -327 0
-329 331 149 -327 0
-332 329 0
-332 327 0
332 -329 -327 0
333 329 -327 0
333 -329 327 0
-333 329 327 0
-333 -329 -327 0
-334 157 0
-334 170 0
-334 325 -161 0
-334 -325 161 0
334 -157 325 161 -170 0
334 -157 -325 -161 -170 0
336 157 -325 0
336 -157 325 0
-336 157 325 0
-336 -157 -325 0
335 161 -170 0
335 -161 170 0
-335 161 170 0
-335 -161 -170 0
-337 157 0
-337 335 0
337 -157 -335 0
338 157 -335 0
338 -157 335 0
-338 157 335 0
-338 -157 -335 0
-339 340 0
-339 338 0
-339 -157 0
339 -340 157 -338 0
340 -157 338 0
-340 157 338 0
-341 338 0
340 -341 -157 0
-340 -341 157 0
340 341 157 -338 0
-340 341 -157 -338 0
-342 338 0
340 -342 157 0
-340 -342 -157 0
340 342 -157 -338 0
-340 342 157 -338 0
-343 340 0
-343 338 0
343 -340 -338 0
344 340 -338 0
344 -340 338 0
-344 340 338 0
-344 -340 -338 0
-178 0
-190 0
-194 0
-201 0
-205 0
-213 0
-217 0
-224 0
-228 0
-236 0
-240 0
-248 0
-252 0
-259 0
-263 0
-271 0
-275 0
-283 0
-287 0
-294 0
-298 0
-306 0
-310 0
-318 0
-322 0
-329 0
-333 0
-340 0
-344 0
-336 0
-170 0
